n = 3;
m = 3;
num_of_regions = 36;
regions_max_size = 4;

regions = [|
14, 2, 1,1, 1,2, 0,0, 0,0, |
12, 2, 1,3, 1,4, 0,0, 0,0, |
12, 2, 1,5, 1,6, 0,0, 0,0, |
18, 3, 1,7, 2,6, 2,7, 0,0, |
6, 2, 1,8, 1,9, 0,0, 0,0, |
12, 2, 2,1, 3,1, 0,0, 0,0, |
5, 2, 2,2, 2,3, 0,0, 0,0, |
8, 2, 2,4, 2,5, 0,0, 0,0, |
10, 2, 2,8, 2,9, 0,0, 0,0, |
9, 2, 3,2, 4,2, 0,0, 0,0, |
19, 3, 3,3, 4,3, 5,3, 0,0, |
4, 2, 3,4, 3,5, 0,0, 0,0, |
7, 2, 3,6, 4,6, 0,0, 0,0, |
14, 2, 3,7, 3,8, 0,0, 0,0, |
11, 2, 3,9, 4,9, 0,0, 0,0, |
7, 2, 4,1, 5,1, 0,0, 0,0, |
6, 2, 4,4, 5,4, 0,0, 0,0, |
15, 2, 4,5, 5,5, 0,0, 0,0, |
14, 2, 4,7, 4,8, 0,0, 0,0, |
14, 2, 5,2, 6,2, 0,0, 0,0, |
8, 2, 5,6, 6,6, 0,0, 0,0, |
5, 2, 5,7, 6,7, 0,0, 0,0, |
8, 2, 5,8, 6,8, 0,0, 0,0, |
12, 2, 5,9, 6,9, 0,0, 0,0, |
9, 2, 6,1, 7,1, 0,0, 0,0, |
14, 3, 6,3, 7,2, 7,3, 0,0, |
13, 3, 6,4, 7,4, 8,4, 0,0, |
15, 2, 6,5, 7,5, 0,0, 0,0, |
5, 2, 7,6, 7,7, 0,0, 0,0, |
17, 3, 7,8, 8,7, 8,8, 0,0, |
18, 4, 7,9, 8,9, 9,8, 9,9, |
11, 2, 8,1, 9,1, 0,0, 0,0, |
18, 4, 8,2, 8,3, 9,2, 9,3, |
9, 2, 8,5, 8,6, 0,0, 0,0, |
11, 2, 9,4, 9,5, 0,0, 0,0, |
15, 2, 9,6, 9,7, 0,0, 0,0, |];

matrix = [|
0, 0, 0, 0, 0, 0, 0, 0, 0, |
0, 0, 0, 0, 0, 0, 0, 0, 0, |
0, 0, 0, 0, 0, 0, 0, 0, 0, |
0, 0, 0, 0, 0, 0, 0, 0, 0, |
0, 0, 0, 0, 0, 0, 0, 0, 0, |
0, 0, 0, 0, 0, 0, 0, 0, 0, |
0, 0, 0, 0, 0, 0, 0, 0, 1, |
0, 0, 0, 0, 0, 0, 0, 0, 2, |
0, 0, 0, 0, 0, 0, 0, 4, 3, |];